language ESSENCE' 1.0
letting lastdx=94
letting cage be [
[43,7,14,6,14,6,15,7,15,8,15],
[39,16,11,16,10,15,10,15,11,0,0],
[15,5,12,0,0, 0,0, 0,0, 0,0],
[13,6,4,6,5,6,6,0,0, 0,0],
[26,6,16,7,16,8,16,9,16,0,0],
[13,2,15,0,0, 0,0, 0,0, 0,0],
[7,13,5,0,0, 0,0, 0,0, 0,0],
[15,6,2,5,2,5,3,0,0, 0,0],
[24,2,10,3,10,0,0, 0,0, 0,0],
[19,4,8,5,8,5,9,0,0, 0,0],
[9,11,1,11,2,0,0, 0,0, 0,0],
[27,14,11,14,12,15,12,16,12,0,0],
[46,10,6,11,6,11,7,10,7,10,8],
[8,4,14,0,0, 0,0, 0,0, 0,0],
[5,13,10,0,0, 0,0, 0,0, 0,0],
[8,13,15,0,0, 0,0, 0,0, 0,0],
[28,5,10,5,11,4,11,0,0, 0,0],
[14,2,9,0,0, 0,0, 0,0, 0,0],
[7,2,14,0,0, 0,0, 0,0, 0,0],
[6,8,2,0,0, 0,0, 0,0, 0,0],
[8,16,3,0,0, 0,0, 0,0, 0,0],
[18,4,15,3,15,3,14,0,0, 0,0],
[43,12,3,12,2,12,1,13,1,14,1],
[30,10,16,10,15,11,15,0,0, 0,0],
[24,9,10,10,10,10,11,0,0, 0,0],
[36,8,11,9,11,9,12,9,13,0,0],
[39,7,2,7,3,6,3,7,4,0,0],
[33,7,8,6,8,6,9,7,9,0,0],
[12,3,4,0,0, 0,0, 0,0, 0,0],
[33,1,2,1,1,2,1,3,1,0,0],
[50,9,5,9,6,9,7,8,7,8,6],
[3,1,10,0,0, 0,0, 0,0, 0,0],
[28,14,3,14,4,13,4,0,0, 0,0],
[6,5,15,0,0, 0,0, 0,0, 0,0],
[38,2,16,1,16,1,15,1,14,0,0],
[26,5,5,5,6,5,7,0,0, 0,0],
[30,14,6,14,5,14,7,14,8,13,8],
[36,15,1,15,2,15,3,14,2,0,0],
[30,4,10,4,9,3,9,0,0, 0,0],
[25,12,11,13,11,0,0, 0,0, 0,0],
[10,2,2,0,0, 0,0, 0,0, 0,0],
[5,1,3,0,0, 0,0, 0,0, 0,0],
[2,16,9,0,0, 0,0, 0,0, 0,0],
[48,15,9,14,9,14,10,13,9,12,9],
[15,14,15,0,0, 0,0, 0,0, 0,0],
[10,13,12,0,0, 0,0, 0,0, 0,0],
[13,1,6,0,0, 0,0, 0,0, 0,0],
[20,4,7,4,6,4,5,0,0, 0,0],
[15,8,4,0,0, 0,0, 0,0, 0,0],
[28,2,6,3,6,3,7,3,8,0,0],
[37,1,5,2,5,3,5,0,0, 0,0],
[33,10,9,11,9,11,10,12,10,0,0],
[12,4,16,3,16,5,16,0,0, 0,0],
[47,2,3,3,3,3,2,4,2,4,3],
[22,5,4,4,4,0,0, 0,0, 0,0],
[2,8,8,0,0, 0,0, 0,0, 0,0],
[13,10,3,0,0, 0,0, 0,0, 0,0],
[7,16,15,0,0, 0,0, 0,0, 0,0],
[24,16,7,16,8,15,8,0,0, 0,0],
[35,11,8,12,8,12,7,0,0, 0,0],
[16,13,3,13,2,0,0, 0,0, 0,0],
[21,7,7,6,7,0,0, 0,0, 0,0],
[13,1,4,2,4,0,0, 0,0, 0,0],
[40,1,7,2,7,2,8,1,8,1,9],
[10,1,11,2,11,3,11,0,0, 0,0],
[39,1,12,1,13,2,13,2,12,0,0],
[23,3,12,4,12,0,0, 0,0, 0,0],
[48,3,13,4,13,5,13,5,14,0,0],
[2,4,1,0,0, 0,0, 0,0, 0,0],
[23,5,1,6,1,0,0, 0,0, 0,0],
[40,6,10,6,11,7,11,7,12,7,13],
[19,6,12,6,13,0,0, 0,0, 0,0],
[33,7,5,7,6,8,5,0,0, 0,0],
[46,7,10,8,10,8,9,9,9,9,8],
[17,8,3,9,3,9,2,0,0, 0,0],
[13,8,12,0,0, 0,0, 0,0, 0,0],
[9,8,13,0,0, 0,0, 0,0, 0,0],
[1,9,4,0,0, 0,0, 0,0, 0,0],
[13,10,4,10,5,0,0, 0,0, 0,0],
[34,10,12,10,13,10,14,11,14,0,0],
[16,11,3,0,0, 0,0, 0,0, 0,0],
[11,11,4,0,0, 0,0, 0,0, 0,0],
[2,11,5,0,0, 0,0, 0,0, 0,0],
[20,11,11,11,12,0,0, 0,0, 0,0],
[1,11,13,0,0, 0,0, 0,0, 0,0],
[9,11,16,0,0, 0,0, 0,0, 0,0],
[10,12,4,0,0, 0,0, 0,0, 0,0],
[32,12,5,12,6,13,6,13,7,0,0],
[12,12,12,12,13,13,13,0,0, 0,0],
[14,12,14,13,14,0,0, 0,0, 0,0],
[21,14,13,14,14,15,14,15,13,0,0],
[38,15,15,15,16,16,16,0,0, 0,0],
[15,16,1,16,2,0,0, 0,0, 0,0],
[18,16,5,16,6,0,0, 0,0, 0,0],
[10,16,13,16,14,0,0, 0,0, 0,0]
]
